10
1 2
2 4
3 7
4 1
5 6
6 4
7 2
8 3
9 6
10 8
23
0 1 28
1 0 28
0 2 36
2 0 36
0 3 94
3 0 94
0 4 70
4 0 70
0 5 61
5 0 61
0 6 69
6 0 69
0 7 71
7 0 71
0 8 89
8 0 89
0 9 21
9 0 21
1 6 75
1 7 89
2 8 74
4 7 75
6 8 41
